************************************************************************
file with basedata            : mm52_.bas
initial value random generator: 28575
************************************************************************
projects                      :  1
jobs (incl. supersource/sink ):  12
horizon                       :  85
RESOURCES
  - renewable                 :  2   R
  - nonrenewable              :  2   N
  - doubly constrained        :  0   D
************************************************************************
PROJECT INFORMATION:
pronr.  #jobs rel.date duedate tardcost  MPM-Time
    1     10      0       11        4       11
************************************************************************
PRECEDENCE RELATIONS:
jobnr.    #modes  #successors   successors
   0        1          3           1   2   3
   1        3          1          10
   2        3          2           5   7
   3        3          3           4   6   8
   4        3          2           7   9
   5        3          2           6   9
   6        3          1          10
   7        3          1          10
   8        3          1          11
   9        3          1          11
  10        3          1          11
  11        1          0        
************************************************************************
REQUESTS/DURATIONS:
jobnr. mode duration  R 1  R 2  R 3  R 4  E(W 1)  E(W 2)  E(W 3)
------------------------------------------------------------------------
  0      1     0       0    0    0    0     0       0       0
  1      1     6       8    8    0    6    96       0      36
  2      1     4       5    4    0    6    36       0      24
  3      1     1       9    6    6    0    15       6       0
  4      1     1       6    6   10    0    12      10       0
  5      1     3       4    7    2    0    33       6       0
  6      1     2       7    6    3    0    26       6       0
  7      1     3       8    4    6    0    36      18       0
  8      1     3       6    8    6    0    42      18       0
  9      1     2       3    9    5    0    24      10       0
 10      1     2       5    6    0    4    22       0       8
 11      1     0       0    0    0    0     0       0       0
************************************************************************
RESOURCEAVAILABILITIES:
  R 1  R 2  R 3
   41   53   43
************************************************************************
RESOURCE LIMITS:
jobnr.  l(R 1)  u(R 1)  l(R 2)  u(R 2)  l(R 3)  u(R 3)
------------------------------------------------------------------------
  0        0       0       0       0       0       0
  1        8      16       0       0       3       6
  2        5       9       0       0       3       6
  3        8      15       3       6       0       0
  4        6      12       5      10       0       0
  5        6      11       1       2       0       0
  6        7      13       2       3       0       0
  7        6      12       3       6       0       0
  8        7      14       3       6       0       0
  9        7      12       3       5       0       0
 10        6      11       0       0       2       4
 11        0       0       0       0       0       0
************************************************************************
SCENARIOS:
------------------------------------------------------------------------
RESOURCE k = 1
s = 1: (0, 55, 27, 16, 10, 49, 23, 34, 23, 22, 35, 0)
s = 2: (0, 62, 44, 20, 11, 42, 32, 30, 45, 29, 30, 0)
s = 3: (0, 112, 24, 26, 11, 41, 22, 38, 44, 22, 21, 0)
s = 4: (0, 104, 45, 16, 11, 40, 19, 34, 49, 28, 16, 0)
s = 5: (0, 75, 39, 16, 14, 25, 44, 24, 51, 27, 24, 0)
s = 6: (0, 120, 45, 20, 10, 37, 19, 30, 45, 20, 24, 0)
s = 7: (0, 69, 46, 16, 10, 22, 22, 33, 40, 26, 24, 0)
s = 8: (0, 91, 26, 14, 12, 35, 19, 36, 71, 20, 30, 0)
s = 9: (0, 63, 25, 13, 9, 33, 23, 40, 23, 35, 24, 0)
s = 10: (0, 62, 26, 9, 15, 54, 21, 47, 30, 40, 32, 0)
s = 11: (0, 53, 35, 13, 11, 33, 22, 35, 45, 24, 21, 0)
s = 12: (0, 127, 20, 16, 7, 24, 19, 24, 44, 26, 18, 0)
s = 13: (0, 67, 23, 14, 10, 40, 17, 40, 43, 24, 18, 0)
s = 14: (0, 123, 35, 20, 17, 24, 32, 51, 41, 38, 24, 0)
s = 15: (0, 95, 44, 14, 13, 34, 17, 30, 63, 27, 14, 0)
s = 16: (0, 61, 43, 16, 10, 27, 19, 37, 46, 18, 16, 0)
s = 17: (0, 73, 30, 10, 15, 54, 42, 43, 45, 23, 25, 0)
s = 18: (0, 151, 46, 13, 14, 29, 25, 31, 45, 26, 22, 0)
s = 19: (0, 61, 54, 17, 10, 23, 21, 37, 58, 24, 19, 0)
s = 20: (0, 118, 41, 25, 17, 33, 30, 25, 41, 26, 20, 0)
s = 21: (0, 65, 43, 13, 14, 38, 19, 39, 54, 19, 20, 0)
s = 22: (0, 91, 35, 16, 18, 20, 14, 21, 47, 25, 23, 0)
s = 23: (0, 116, 20, 14, 12, 21, 26, 31, 45, 22, 24, 0)
s = 24: (0, 91, 44, 12, 16, 44, 39, 43, 45, 19, 25, 0)
s = 25: (0, 106, 47, 21, 10, 26, 33, 30, 47, 26, 15, 0)
s = 26: (0, 89, 27, 16, 11, 37, 25, 33, 44, 27, 26, 0)
s = 27: (0, 121, 28, 14, 13, 38, 25, 53, 67, 30, 18, 0)
s = 28: (0, 100, 21, 14, 13, 44, 18, 42, 35, 32, 19, 0)
s = 29: (0, 109, 55, 16, 8, 33, 22, 35, 56, 16, 20, 0)
s = 30: (0, 130, 51, 13, 11, 41, 20, 35, 36, 23, 28, 0)
s = 31: (0, 100, 61, 14, 10, 24, 20, 24, 33, 20, 13, 0)
s = 32: (0, 91, 38, 12, 9, 24, 24, 32, 46, 22, 24, 0)
s = 33: (0, 84, 61, 16, 10, 30, 16, 35, 58, 38, 19, 0)
s = 34: (0, 113, 41, 16, 12, 30, 32, 39, 27, 26, 25, 0)
s = 35: (0, 131, 42, 27, 15, 26, 16, 37, 48, 17, 43, 0)
s = 36: (0, 122, 39, 17, 15, 30, 16, 38, 51, 22, 27, 0)
s = 37: (0, 64, 35, 16, 13, 26, 22, 51, 70, 28, 20, 0)
s = 38: (0, 95, 43, 10, 13, 25, 22, 35, 66, 21, 18, 0)
s = 39: (0, 75, 35, 12, 16, 37, 20, 56, 41, 29, 18, 0)
s = 40: (0, 85, 55, 13, 12, 29, 29, 56, 34, 20, 30, 0)
s = 41: (0, 108, 27, 11, 12, 34, 24, 22, 60, 18, 25, 0)
s = 42: (0, 83, 45, 24, 14, 22, 37, 38, 46, 19, 25, 0)
s = 43: (0, 118, 36, 13, 8, 39, 26, 31, 34, 21, 19, 0)
s = 44: (0, 83, 31, 13, 13, 46, 50, 40, 38, 25, 20, 0)
s = 45: (0, 75, 25, 17, 8, 34, 18, 34, 37, 18, 24, 0)
s = 46: (0, 106, 22, 15, 12, 20, 19, 44, 27, 30, 32, 0)
s = 47: (0, 80, 44, 14, 16, 39, 22, 36, 28, 28, 18, 0)
s = 48: (0, 59, 58, 19, 11, 35, 21, 30, 58, 22, 40, 0)
s = 49: (0, 82, 55, 11, 8, 26, 20, 36, 25, 32, 19, 0)
s = 50: (0, 130, 41, 14, 9, 18, 35, 39, 29, 17, 20, 0)
s = 51: (0, 62, 29, 12, 8, 28, 32, 30, 45, 20, 32, 0)
s = 52: (0, 117, 31, 29, 8, 45, 18, 27, 53, 19, 32, 0)
s = 53: (0, 102, 19, 18, 9, 29, 37, 26, 39, 20, 26, 0)
s = 54: (0, 65, 54, 13, 7, 33, 36, 50, 25, 28, 26, 0)
s = 55: (0, 71, 47, 14, 19, 31, 26, 38, 58, 29, 18, 0)
s = 56: (0, 76, 21, 13, 10, 34, 33, 57, 34, 15, 23, 0)
s = 57: (0, 77, 22, 13, 9, 39, 19, 53, 51, 40, 22, 0)
s = 58: (0, 129, 53, 13, 20, 41, 17, 27, 29, 21, 17, 0)
s = 59: (0, 93, 25, 11, 18, 35, 18, 42, 42, 24, 30, 0)
s = 60: (0, 65, 53, 18, 10, 59, 24, 60, 52, 16, 18, 0)
s = 61: (0, 60, 46, 23, 18, 29, 36, 45, 31, 31, 20, 0)
s = 62: (0, 96, 27, 12, 11, 34, 24, 31, 57, 21, 20, 0)
s = 63: (0, 96, 47, 10, 19, 52, 30, 29, 50, 14, 29, 0)
s = 64: (0, 66, 39, 13, 11, 28, 15, 37, 54, 32, 30, 0)
s = 65: (0, 100, 55, 17, 8, 24, 22, 24, 51, 34, 18, 0)
s = 66: (0, 83, 32, 12, 16, 40, 44, 37, 39, 25, 23, 0)
s = 67: (0, 151, 35, 13, 7, 31, 20, 38, 55, 16, 15, 0)
s = 68: (0, 81, 23, 16, 9, 42, 22, 35, 27, 26, 27, 0)
s = 69: (0, 152, 50, 14, 13, 24, 35, 46, 52, 34, 16, 0)
s = 70: (0, 126, 41, 15, 7, 28, 31, 23, 31, 16, 21, 0)
s = 71: (0, 134, 22, 19, 16, 58, 21, 39, 28, 25, 16, 0)
s = 72: (0, 120, 31, 16, 8, 23, 33, 31, 34, 19, 31, 0)
s = 73: (0, 116, 20, 15, 17, 35, 16, 21, 42, 33, 18, 0)
s = 74: (0, 89, 33, 14, 17, 34, 30, 52, 46, 32, 31, 0)
s = 75: (0, 134, 24, 10, 16, 22, 33, 23, 38, 16, 24, 0)
s = 76: (0, 57, 27, 14, 15, 25, 31, 32, 33, 26, 31, 0)
s = 77: (0, 102, 39, 10, 9, 18, 25, 20, 30, 28, 15, 0)
s = 78: (0, 111, 34, 19, 16, 25, 23, 21, 33, 18, 29, 0)
s = 79: (0, 114, 35, 20, 14, 40, 30, 38, 54, 25, 33, 0)
s = 80: (0, 98, 39, 16, 11, 36, 24, 67, 53, 40, 25, 0)
s = 81: (0, 122, 42, 17, 13, 29, 34, 31, 35, 19, 20, 0)
s = 82: (0, 71, 22, 17, 9, 20, 15, 22, 38, 28, 21, 0)
s = 83: (0, 155, 36, 14, 11, 32, 25, 24, 61, 29, 17, 0)
s = 84: (0, 94, 42, 13, 17, 27, 23, 26, 32, 18, 15, 0)
s = 85: (0, 74, 36, 14, 11, 30, 41, 22, 53, 14, 28, 0)
s = 86: (0, 73, 44, 14, 8, 25, 28, 36, 80, 24, 15, 0)
s = 87: (0, 119, 23, 9, 20, 21, 23, 42, 43, 25, 22, 0)
s = 88: (0, 93, 30, 20, 13, 64, 35, 25, 34, 34, 30, 0)
s = 89: (0, 127, 27, 20, 15, 19, 23, 25, 33, 22, 29, 0)
s = 90: (0, 105, 47, 23, 15, 30, 18, 30, 52, 17, 16, 0)
s = 91: (0, 84, 24, 12, 9, 27, 28, 35, 43, 31, 16, 0)
s = 92: (0, 84, 23, 17, 16, 28, 21, 42, 44, 28, 17, 0)
s = 93: (0, 52, 37, 13, 9, 37, 26, 33, 32, 28, 36, 0)
s = 94: (0, 70, 58, 11, 12, 40, 18, 46, 33, 25, 16, 0)
s = 95: (0, 92, 20, 20, 14, 38, 21, 32, 33, 21, 32, 0)
s = 96: (0, 119, 31, 16, 17, 25, 15, 27, 26, 21, 18, 0)
s = 97: (0, 116, 25, 19, 14, 50, 46, 33, 33, 23, 32, 0)
s = 98: (0, 125, 62, 12, 8, 24, 18, 60, 28, 18, 15, 0)
s = 99: (0, 69, 41, 13, 12, 26, 21, 23, 48, 17, 15, 0)
s = 100: (0, 92, 54, 15, 12, 29, 37, 41, 23, 26, 17, 0)
s = 101: (0, 133, 29, 17, 14, 41, 32, 44, 47, 18, 24, 0)
s = 102: (0, 80, 34, 15, 12, 19, 28, 28, 40, 20, 15, 0)
s = 103: (0, 85, 22, 12, 10, 41, 21, 40, 34, 33, 17, 0)
s = 104: (0, 96, 33, 16, 14, 32, 27, 33, 46, 34, 14, 0)
s = 105: (0, 55, 41, 13, 12, 38, 40, 35, 55, 16, 32, 0)
s = 106: (0, 93, 39, 18, 13, 25, 26, 24, 23, 25, 12, 0)
s = 107: (0, 101, 42, 23, 19, 34, 23, 33, 39, 18, 24, 0)
s = 108: (0, 86, 34, 9, 9, 28, 20, 60, 27, 16, 21, 0)
s = 109: (0, 168, 43, 13, 9, 28, 33, 55, 48, 15, 19, 0)
s = 110: (0, 138, 50, 19, 14, 19, 19, 29, 46, 42, 21, 0)
s = 111: (0, 99, 40, 14, 12, 45, 30, 22, 55, 24, 24, 0)
s = 112: (0, 150, 25, 11, 12, 29, 28, 26, 47, 17, 21, 0)
s = 113: (0, 65, 38, 18, 17, 29, 41, 28, 43, 26, 25, 0)
s = 114: (0, 77, 19, 16, 11, 41, 38, 21, 65, 27, 17, 0)
s = 115: (0, 88, 34, 17, 14, 25, 21, 34, 24, 24, 22, 0)
s = 116: (0, 103, 31, 18, 9, 34, 24, 24, 35, 17, 21, 0)
s = 117: (0, 103, 34, 19, 14, 43, 25, 36, 36, 19, 19, 0)
s = 118: (0, 114, 26, 24, 15, 37, 22, 33, 39, 36, 14, 0)
s = 119: (0, 68, 34, 13, 16, 32, 26, 53, 33, 34, 15, 0)
s = 120: (0, 56, 41, 20, 9, 32, 17, 27, 49, 15, 17, 0)
s = 121: (0, 124, 35, 22, 9, 49, 25, 34, 43, 42, 26, 0)
s = 122: (0, 76, 41, 23, 8, 29, 19, 42, 59, 24, 16, 0)
s = 123: (0, 97, 34, 19, 16, 26, 27, 61, 37, 25, 29, 0)
s = 124: (0, 75, 41, 14, 10, 46, 40, 23, 34, 24, 30, 0)
s = 125: (0, 89, 41, 19, 14, 35, 18, 44, 48, 17, 36, 0)
s = 126: (0, 92, 44, 12, 8, 41, 35, 43, 27, 39, 20, 0)
s = 127: (0, 77, 52, 19, 13, 25, 32, 25, 40, 30, 20, 0)
s = 128: (0, 70, 43, 14, 15, 53, 27, 25, 31, 23, 26, 0)
s = 129: (0, 61, 42, 16, 9, 49, 27, 22, 38, 15, 22, 0)
s = 130: (0, 118, 36, 13, 20, 33, 19, 39, 27, 25, 27, 0)
s = 131: (0, 72, 26, 12, 14, 33, 23, 27, 27, 26, 21, 0)
s = 132: (0, 76, 34, 19, 12, 34, 39, 59, 50, 31, 18, 0)
s = 133: (0, 112, 45, 24, 16, 28, 27, 38, 32, 31, 26, 0)
s = 134: (0, 89, 40, 15, 16, 29, 33, 30, 68, 35, 30, 0)
s = 135: (0, 61, 31, 30, 7, 30, 28, 32, 60, 23, 26, 0)
s = 136: (0, 134, 25, 19, 11, 35, 16, 51, 33, 22, 25, 0)
s = 137: (0, 105, 48, 13, 13, 40, 38, 53, 28, 20, 19, 0)
s = 138: (0, 109, 37, 12, 10, 43, 28, 45, 50, 20, 14, 0)
s = 139: (0, 125, 56, 14, 16, 24, 22, 38, 32, 21, 23, 0)
s = 140: (0, 73, 44, 11, 11, 34, 22, 42, 30, 22, 16, 0)
s = 141: (0, 96, 38, 18, 21, 36, 29, 29, 24, 23, 14, 0)
s = 142: (0, 107, 34, 16, 9, 28, 20, 42, 57, 22, 28, 0)
s = 143: (0, 127, 36, 21, 10, 27, 21, 32, 43, 17, 19, 0)
s = 144: (0, 71, 29, 14, 22, 26, 42, 33, 50, 31, 28, 0)
s = 145: (0, 98, 51, 16, 10, 41, 40, 31, 49, 20, 24, 0)
s = 146: (0, 83, 49, 19, 13, 21, 26, 41, 43, 19, 21, 0)
s = 147: (0, 162, 42, 25, 10, 35, 20, 22, 33, 19, 28, 0)
s = 148: (0, 96, 46, 22, 13, 38, 22, 34, 43, 20, 27, 0)
s = 149: (0, 152, 47, 16, 15, 36, 27, 24, 56, 16, 23, 0)
s = 150: (0, 74, 24, 11, 21, 32, 28, 48, 30, 31, 27, 0)
s = 151: (0, 116, 49, 11, 11, 51, 31, 48, 72, 25, 25, 0)
s = 152: (0, 69, 28, 20, 12, 23, 23, 39, 47, 25, 35, 0)
s = 153: (0, 81, 46, 12, 11, 25, 34, 32, 59, 31, 21, 0)
s = 154: (0, 107, 38, 12, 13, 32, 25, 62, 46, 19, 17, 0)
s = 155: (0, 79, 37, 21, 11, 26, 25, 41, 30, 26, 14, 0)
s = 156: (0, 167, 45, 18, 16, 38, 28, 24, 47, 17, 14, 0)
s = 157: (0, 61, 34, 18, 14, 38, 24, 51, 32, 23, 14, 0)
s = 158: (0, 95, 46, 12, 7, 46, 31, 44, 32, 24, 23, 0)
s = 159: (0, 53, 41, 15, 15, 43, 33, 39, 54, 21, 19, 0)
s = 160: (0, 73, 46, 13, 10, 31, 38, 41, 44, 16, 22, 0)
s = 161: (0, 101, 26, 15, 14, 27, 27, 38, 40, 23, 17, 0)
s = 162: (0, 113, 55, 18, 18, 27, 27, 38, 47, 30, 17, 0)
s = 163: (0, 97, 37, 12, 15, 23, 31, 47, 46, 27, 30, 0)
s = 164: (0, 67, 48, 12, 11, 52, 26, 36, 43, 26, 14, 0)
s = 165: (0, 95, 40, 11, 9, 23, 33, 41, 32, 17, 31, 0)
s = 166: (0, 90, 36, 12, 14, 50, 16, 41, 28, 26, 27, 0)
s = 167: (0, 82, 38, 15, 14, 40, 28, 41, 34, 31, 19, 0)
s = 168: (0, 85, 41, 16, 10, 50, 33, 36, 42, 15, 28, 0)
s = 169: (0, 133, 58, 13, 10, 43, 20, 56, 36, 34, 16, 0)
s = 170: (0, 98, 33, 21, 7, 37, 33, 52, 37, 27, 20, 0)
s = 171: (0, 86, 35, 11, 12, 45, 22, 42, 32, 14, 21, 0)
s = 172: (0, 87, 25, 21, 15, 25, 28, 38, 53, 23, 23, 0)
s = 173: (0, 79, 23, 11, 9, 25, 31, 46, 56, 16, 18, 0)
s = 174: (0, 78, 36, 15, 15, 28, 19, 27, 65, 26, 25, 0)
s = 175: (0, 73, 48, 11, 9, 31, 18, 27, 53, 32, 13, 0)
s = 176: (0, 95, 44, 13, 19, 24, 31, 32, 36, 18, 26, 0)
s = 177: (0, 65, 66, 10, 7, 35, 30, 44, 38, 19, 27, 0)
s = 178: (0, 63, 23, 10, 11, 28, 15, 44, 48, 14, 23, 0)
s = 179: (0, 76, 47, 18, 17, 55, 41, 50, 30, 32, 25, 0)
s = 180: (0, 73, 30, 12, 12, 53, 27, 44, 26, 37, 37, 0)
s = 181: (0, 100, 56, 16, 13, 38, 17, 49, 45, 36, 17, 0)
s = 182: (0, 63, 45, 15, 18, 25, 16, 46, 40, 20, 13, 0)
s = 183: (0, 95, 23, 11, 15, 44, 36, 34, 65, 18, 20, 0)
s = 184: (0, 85, 46, 10, 8, 41, 21, 50, 45, 31, 14, 0)
s = 185: (0, 188, 50, 17, 19, 46, 25, 33, 47, 19, 17, 0)
s = 186: (0, 114, 31, 12, 19, 32, 26, 40, 38, 21, 23, 0)
s = 187: (0, 103, 51, 15, 12, 36, 18, 26, 59, 18, 12, 0)
s = 188: (0, 118, 45, 19, 12, 26, 20, 26, 41, 20, 20, 0)
s = 189: (0, 79, 40, 22, 18, 38, 20, 36, 31, 30, 31, 0)
s = 190: (0, 156, 49, 11, 12, 21, 22, 24, 43, 17, 21, 0)
s = 191: (0, 103, 46, 16, 10, 32, 44, 30, 45, 25, 21, 0)
s = 192: (0, 74, 60, 21, 9, 44, 33, 25, 41, 20, 14, 0)
s = 193: (0, 98, 49, 13, 9, 21, 27, 31, 57, 27, 37, 0)
s = 194: (0, 85, 37, 13, 13, 24, 37, 29, 27, 19, 27, 0)
s = 195: (0, 105, 33, 25, 11, 30, 37, 25, 44, 25, 25, 0)
s = 196: (0, 100, 67, 15, 9, 29, 24, 31, 44, 26, 33, 0)
s = 197: (0, 60, 52, 10, 19, 33, 21, 22, 31, 19, 30, 0)
s = 198: (0, 115, 43, 15, 8, 20, 26, 35, 26, 27, 21, 0)
s = 199: (0, 96, 38, 27, 12, 36, 28, 28, 31, 19, 21, 0)
s = 200: (0, 107, 48, 11, 13, 59, 46, 43, 39, 22, 37, 0)
------------------------------------------------------------------------
RESOURCE k = 2
s = 1: (0, 0, 0, 7, 8, 9, 6, 17, 10, 9, 0, 0)
s = 2: (0, 0, 0, 8, 9, 8, 8, 15, 19, 12, 0, 0)
s = 3: (0, 0, 0, 11, 10, 8, 6, 19, 19, 10, 0, 0)
s = 4: (0, 0, 0, 7, 9, 8, 5, 17, 21, 12, 0, 0)
s = 5: (0, 0, 0, 7, 12, 5, 10, 12, 22, 11, 0, 0)
s = 6: (0, 0, 0, 8, 8, 7, 5, 15, 19, 9, 0, 0)
s = 7: (0, 0, 0, 7, 8, 4, 5, 17, 18, 11, 0, 0)
s = 8: (0, 0, 0, 6, 10, 7, 5, 18, 31, 8, 0, 0)
s = 9: (0, 0, 0, 6, 8, 6, 6, 20, 10, 15, 0, 0)
s = 10: (0, 0, 0, 4, 13, 10, 5, 24, 13, 17, 0, 0)
s = 11: (0, 0, 0, 5, 9, 6, 5, 18, 20, 10, 0, 0)
s = 12: (0, 0, 0, 7, 6, 5, 5, 12, 19, 11, 0, 0)
s = 13: (0, 0, 0, 6, 9, 8, 4, 20, 19, 10, 0, 0)
s = 14: (0, 0, 0, 8, 14, 5, 8, 26, 18, 16, 0, 0)
s = 15: (0, 0, 0, 6, 11, 7, 4, 15, 27, 12, 0, 0)
s = 16: (0, 0, 0, 7, 9, 5, 5, 19, 20, 8, 0, 0)
s = 17: (0, 0, 0, 4, 13, 10, 10, 22, 20, 10, 0, 0)
s = 18: (0, 0, 0, 6, 12, 6, 6, 16, 19, 11, 0, 0)
s = 19: (0, 0, 0, 7, 8, 5, 5, 19, 25, 10, 0, 0)
s = 20: (0, 0, 0, 10, 15, 6, 7, 13, 18, 11, 0, 0)
s = 21: (0, 0, 0, 5, 12, 7, 5, 20, 24, 8, 0, 0)
s = 22: (0, 0, 0, 7, 15, 4, 4, 11, 20, 11, 0, 0)
s = 23: (0, 0, 0, 6, 10, 4, 6, 16, 20, 10, 0, 0)
s = 24: (0, 0, 0, 5, 13, 8, 9, 22, 19, 8, 0, 0)
s = 25: (0, 0, 0, 9, 8, 5, 8, 15, 20, 11, 0, 0)
s = 26: (0, 0, 0, 7, 9, 7, 6, 17, 19, 11, 0, 0)
s = 27: (0, 0, 0, 6, 11, 7, 6, 27, 29, 13, 0, 0)
s = 28: (0, 0, 0, 6, 11, 8, 4, 21, 15, 13, 0, 0)
s = 29: (0, 0, 0, 7, 7, 6, 6, 18, 24, 7, 0, 0)
s = 30: (0, 0, 0, 6, 9, 8, 5, 18, 16, 10, 0, 0)
s = 31: (0, 0, 0, 6, 8, 5, 5, 12, 14, 8, 0, 0)
s = 32: (0, 0, 0, 5, 8, 5, 6, 16, 20, 9, 0, 0)
s = 33: (0, 0, 0, 7, 9, 6, 4, 18, 25, 16, 0, 0)
s = 34: (0, 0, 0, 7, 10, 6, 8, 20, 12, 11, 0, 0)
s = 35: (0, 0, 0, 11, 13, 5, 4, 19, 21, 7, 0, 0)
s = 36: (0, 0, 0, 7, 13, 6, 4, 19, 22, 9, 0, 0)
s = 37: (0, 0, 0, 7, 11, 5, 6, 26, 30, 12, 0, 0)
s = 38: (0, 0, 0, 4, 11, 5, 5, 18, 29, 9, 0, 0)
s = 39: (0, 0, 0, 5, 13, 7, 5, 28, 18, 12, 0, 0)
s = 40: (0, 0, 0, 5, 10, 6, 7, 28, 15, 9, 0, 0)
s = 41: (0, 0, 0, 5, 10, 7, 6, 11, 26, 8, 0, 0)
s = 42: (0, 0, 0, 10, 12, 4, 9, 19, 20, 8, 0, 0)
s = 43: (0, 0, 0, 6, 7, 7, 6, 16, 15, 9, 0, 0)
s = 44: (0, 0, 0, 6, 11, 9, 12, 20, 17, 11, 0, 0)
s = 45: (0, 0, 0, 7, 7, 7, 4, 17, 16, 8, 0, 0)
s = 46: (0, 0, 0, 6, 10, 4, 5, 22, 12, 13, 0, 0)
s = 47: (0, 0, 0, 6, 13, 8, 5, 18, 12, 12, 0, 0)
s = 48: (0, 0, 0, 8, 9, 7, 5, 15, 25, 9, 0, 0)
s = 49: (0, 0, 0, 5, 7, 5, 5, 18, 11, 13, 0, 0)
s = 50: (0, 0, 0, 6, 7, 4, 8, 20, 13, 7, 0, 0)
s = 51: (0, 0, 0, 5, 6, 6, 8, 15, 19, 9, 0, 0)
s = 52: (0, 0, 0, 12, 7, 9, 4, 14, 23, 8, 0, 0)
s = 53: (0, 0, 0, 8, 8, 6, 9, 13, 17, 9, 0, 0)
s = 54: (0, 0, 0, 5, 6, 6, 9, 25, 11, 12, 0, 0)
s = 55: (0, 0, 0, 6, 16, 6, 6, 19, 25, 12, 0, 0)
s = 56: (0, 0, 0, 6, 8, 7, 8, 29, 15, 7, 0, 0)
s = 57: (0, 0, 0, 6, 8, 7, 5, 27, 22, 17, 0, 0)
s = 58: (0, 0, 0, 5, 16, 8, 4, 14, 13, 9, 0, 0)
s = 59: (0, 0, 0, 5, 15, 7, 4, 21, 18, 10, 0, 0)
s = 60: (0, 0, 0, 7, 8, 11, 6, 30, 23, 7, 0, 0)
s = 61: (0, 0, 0, 9, 15, 6, 9, 23, 13, 13, 0, 0)
s = 62: (0, 0, 0, 5, 9, 7, 6, 16, 25, 9, 0, 0)
s = 63: (0, 0, 0, 4, 16, 10, 7, 15, 22, 6, 0, 0)
s = 64: (0, 0, 0, 6, 10, 5, 4, 19, 24, 14, 0, 0)
s = 65: (0, 0, 0, 7, 7, 5, 5, 12, 22, 15, 0, 0)
s = 66: (0, 0, 0, 5, 13, 8, 11, 19, 17, 11, 0, 0)
s = 67: (0, 0, 0, 6, 6, 6, 5, 19, 24, 7, 0, 0)
s = 68: (0, 0, 0, 7, 8, 8, 5, 18, 12, 11, 0, 0)
s = 69: (0, 0, 0, 6, 11, 5, 9, 23, 22, 15, 0, 0)
s = 70: (0, 0, 0, 6, 6, 5, 8, 12, 14, 7, 0, 0)
s = 71: (0, 0, 0, 8, 13, 11, 5, 20, 12, 11, 0, 0)
s = 72: (0, 0, 0, 7, 7, 5, 8, 16, 15, 8, 0, 0)
s = 73: (0, 0, 0, 6, 14, 7, 4, 11, 18, 14, 0, 0)
s = 74: (0, 0, 0, 6, 14, 7, 7, 26, 20, 14, 0, 0)
s = 75: (0, 0, 0, 4, 14, 4, 8, 12, 16, 7, 0, 0)
s = 76: (0, 0, 0, 6, 13, 5, 8, 16, 14, 11, 0, 0)
s = 77: (0, 0, 0, 4, 8, 4, 6, 10, 13, 12, 0, 0)
s = 78: (0, 0, 0, 8, 14, 5, 6, 11, 14, 8, 0, 0)
s = 79: (0, 0, 0, 8, 12, 8, 7, 19, 24, 11, 0, 0)
s = 80: (0, 0, 0, 7, 9, 7, 6, 34, 23, 17, 0, 0)
s = 81: (0, 0, 0, 7, 11, 6, 8, 16, 15, 8, 0, 0)
s = 82: (0, 0, 0, 7, 8, 4, 4, 11, 16, 12, 0, 0)
s = 83: (0, 0, 0, 6, 9, 6, 6, 12, 27, 12, 0, 0)
s = 84: (0, 0, 0, 6, 15, 5, 6, 13, 14, 8, 0, 0)
s = 85: (0, 0, 0, 6, 9, 6, 10, 11, 23, 6, 0, 0)
s = 86: (0, 0, 0, 6, 7, 5, 7, 18, 35, 10, 0, 0)
s = 87: (0, 0, 0, 4, 17, 4, 6, 21, 19, 11, 0, 0)
s = 88: (0, 0, 0, 8, 11, 12, 9, 13, 15, 14, 0, 0)
s = 89: (0, 0, 0, 8, 12, 4, 6, 13, 14, 9, 0, 0)
s = 90: (0, 0, 0, 10, 12, 6, 5, 15, 23, 7, 0, 0)
s = 91: (0, 0, 0, 5, 7, 5, 7, 18, 19, 13, 0, 0)
s = 92: (0, 0, 0, 7, 13, 5, 5, 21, 19, 12, 0, 0)
s = 93: (0, 0, 0, 6, 8, 7, 6, 17, 14, 12, 0, 0)
s = 94: (0, 0, 0, 5, 10, 8, 5, 23, 15, 11, 0, 0)
s = 95: (0, 0, 0, 8, 12, 7, 5, 16, 15, 9, 0, 0)
s = 96: (0, 0, 0, 7, 14, 5, 4, 14, 12, 9, 0, 0)
s = 97: (0, 0, 0, 8, 12, 10, 11, 17, 15, 10, 0, 0)
s = 98: (0, 0, 0, 5, 7, 5, 4, 30, 12, 8, 0, 0)
s = 99: (0, 0, 0, 6, 10, 5, 5, 12, 21, 7, 0, 0)
s = 100: (0, 0, 0, 6, 10, 6, 9, 21, 10, 11, 0, 0)
s = 101: (0, 0, 0, 7, 11, 8, 8, 22, 21, 8, 0, 0)
s = 102: (0, 0, 0, 6, 10, 4, 7, 14, 18, 8, 0, 0)
s = 103: (0, 0, 0, 5, 9, 8, 5, 20, 15, 14, 0, 0)
s = 104: (0, 0, 0, 7, 12, 6, 7, 17, 20, 15, 0, 0)
s = 105: (0, 0, 0, 5, 10, 7, 10, 18, 24, 7, 0, 0)
s = 106: (0, 0, 0, 8, 11, 5, 6, 12, 10, 11, 0, 0)
s = 107: (0, 0, 0, 9, 16, 7, 6, 17, 17, 8, 0, 0)
s = 108: (0, 0, 0, 4, 8, 5, 5, 30, 12, 7, 0, 0)
s = 109: (0, 0, 0, 5, 8, 5, 8, 28, 21, 7, 0, 0)
s = 110: (0, 0, 0, 8, 12, 4, 5, 15, 20, 18, 0, 0)
s = 111: (0, 0, 0, 6, 10, 9, 7, 11, 24, 10, 0, 0)
s = 112: (0, 0, 0, 5, 10, 6, 7, 13, 20, 7, 0, 0)
s = 113: (0, 0, 0, 8, 14, 6, 10, 14, 19, 11, 0, 0)
s = 114: (0, 0, 0, 7, 9, 8, 9, 11, 28, 12, 0, 0)
s = 115: (0, 0, 0, 7, 11, 5, 5, 17, 11, 10, 0, 0)
s = 116: (0, 0, 0, 8, 7, 7, 6, 12, 15, 8, 0, 0)
s = 117: (0, 0, 0, 8, 12, 8, 6, 18, 16, 8, 0, 0)
s = 118: (0, 0, 0, 10, 12, 7, 6, 17, 17, 15, 0, 0)
s = 119: (0, 0, 0, 5, 13, 6, 6, 27, 14, 14, 0, 0)
s = 120: (0, 0, 0, 8, 8, 6, 4, 14, 21, 7, 0, 0)
s = 121: (0, 0, 0, 9, 8, 9, 6, 17, 19, 18, 0, 0)
s = 122: (0, 0, 0, 9, 7, 6, 5, 21, 25, 10, 0, 0)
s = 123: (0, 0, 0, 8, 13, 5, 7, 31, 16, 11, 0, 0)
s = 124: (0, 0, 0, 6, 9, 9, 10, 12, 15, 10, 0, 0)
s = 125: (0, 0, 0, 8, 12, 7, 4, 22, 21, 7, 0, 0)
s = 126: (0, 0, 0, 5, 6, 8, 8, 22, 12, 17, 0, 0)
s = 127: (0, 0, 0, 8, 11, 5, 8, 13, 17, 13, 0, 0)
s = 128: (0, 0, 0, 6, 13, 10, 7, 13, 13, 10, 0, 0)
s = 129: (0, 0, 0, 7, 8, 9, 7, 11, 16, 7, 0, 0)
s = 130: (0, 0, 0, 6, 16, 6, 5, 20, 12, 11, 0, 0)
s = 131: (0, 0, 0, 5, 12, 6, 6, 14, 12, 11, 0, 0)
s = 132: (0, 0, 0, 8, 10, 7, 9, 30, 22, 13, 0, 0)
s = 133: (0, 0, 0, 10, 14, 5, 7, 19, 14, 13, 0, 0)
s = 134: (0, 0, 0, 6, 14, 6, 8, 15, 30, 15, 0, 0)
s = 135: (0, 0, 0, 12, 6, 6, 7, 16, 26, 10, 0, 0)
s = 136: (0, 0, 0, 8, 10, 7, 4, 26, 15, 10, 0, 0)
s = 137: (0, 0, 0, 5, 11, 8, 9, 27, 12, 8, 0, 0)
s = 138: (0, 0, 0, 5, 8, 8, 7, 23, 22, 9, 0, 0)
s = 139: (0, 0, 0, 6, 13, 5, 6, 19, 14, 9, 0, 0)
s = 140: (0, 0, 0, 5, 9, 7, 5, 21, 13, 9, 0, 0)
s = 141: (0, 0, 0, 8, 18, 7, 7, 15, 11, 10, 0, 0)
s = 142: (0, 0, 0, 7, 7, 6, 5, 21, 25, 9, 0, 0)
s = 143: (0, 0, 0, 9, 8, 5, 5, 16, 19, 8, 0, 0)
s = 144: (0, 0, 0, 6, 18, 5, 10, 17, 22, 13, 0, 0)
s = 145: (0, 0, 0, 7, 8, 8, 10, 16, 21, 8, 0, 0)
s = 146: (0, 0, 0, 8, 11, 4, 6, 21, 19, 8, 0, 0)
s = 147: (0, 0, 0, 10, 8, 7, 5, 11, 14, 8, 0, 0)
s = 148: (0, 0, 0, 9, 11, 7, 6, 17, 19, 8, 0, 0)
s = 149: (0, 0, 0, 7, 12, 7, 7, 12, 24, 7, 0, 0)
s = 150: (0, 0, 0, 5, 17, 6, 7, 24, 13, 13, 0, 0)
s = 151: (0, 0, 0, 5, 10, 10, 8, 24, 31, 11, 0, 0)
s = 152: (0, 0, 0, 8, 10, 5, 6, 20, 20, 11, 0, 0)
s = 153: (0, 0, 0, 5, 9, 5, 8, 16, 25, 13, 0, 0)
s = 154: (0, 0, 0, 5, 11, 6, 6, 31, 20, 8, 0, 0)
s = 155: (0, 0, 0, 9, 9, 5, 6, 21, 13, 11, 0, 0)
s = 156: (0, 0, 0, 7, 14, 7, 7, 12, 21, 7, 0, 0)
s = 157: (0, 0, 0, 8, 12, 7, 6, 26, 14, 10, 0, 0)
s = 158: (0, 0, 0, 5, 6, 9, 8, 22, 14, 10, 0, 0)
s = 159: (0, 0, 0, 6, 12, 8, 8, 20, 23, 9, 0, 0)
s = 160: (0, 0, 0, 5, 8, 6, 9, 21, 19, 7, 0, 0)
s = 161: (0, 0, 0, 6, 11, 5, 7, 19, 17, 10, 0, 0)
s = 162: (0, 0, 0, 7, 15, 5, 7, 19, 20, 13, 0, 0)
s = 163: (0, 0, 0, 5, 12, 5, 7, 24, 20, 12, 0, 0)
s = 164: (0, 0, 0, 5, 9, 10, 6, 18, 19, 11, 0, 0)
s = 165: (0, 0, 0, 5, 8, 5, 8, 21, 14, 7, 0, 0)
s = 166: (0, 0, 0, 5, 12, 9, 4, 21, 12, 11, 0, 0)
s = 167: (0, 0, 0, 6, 11, 8, 7, 21, 15, 13, 0, 0)
s = 168: (0, 0, 0, 7, 8, 10, 8, 18, 18, 7, 0, 0)
s = 169: (0, 0, 0, 5, 8, 8, 5, 28, 16, 14, 0, 0)
s = 170: (0, 0, 0, 9, 6, 7, 8, 26, 16, 12, 0, 0)
s = 171: (0, 0, 0, 5, 10, 9, 5, 21, 14, 6, 0, 0)
s = 172: (0, 0, 0, 9, 12, 5, 7, 19, 23, 10, 0, 0)
s = 173: (0, 0, 0, 5, 8, 5, 7, 23, 24, 7, 0, 0)
s = 174: (0, 0, 0, 6, 12, 6, 5, 14, 28, 11, 0, 0)
s = 175: (0, 0, 0, 5, 7, 6, 5, 14, 23, 14, 0, 0)
s = 176: (0, 0, 0, 6, 16, 5, 8, 16, 16, 8, 0, 0)
s = 177: (0, 0, 0, 4, 6, 7, 7, 22, 16, 8, 0, 0)
s = 178: (0, 0, 0, 4, 10, 5, 4, 22, 21, 6, 0, 0)
s = 179: (0, 0, 0, 7, 14, 10, 10, 25, 13, 14, 0, 0)
s = 180: (0, 0, 0, 5, 10, 10, 7, 22, 11, 16, 0, 0)
s = 181: (0, 0, 0, 7, 11, 7, 4, 25, 19, 15, 0, 0)
s = 182: (0, 0, 0, 6, 15, 5, 4, 23, 18, 9, 0, 0)
s = 183: (0, 0, 0, 5, 13, 8, 9, 17, 28, 8, 0, 0)
s = 184: (0, 0, 0, 4, 7, 8, 5, 25, 19, 13, 0, 0)
s = 185: (0, 0, 0, 7, 16, 9, 6, 17, 20, 8, 0, 0)
s = 186: (0, 0, 0, 5, 16, 6, 6, 20, 16, 9, 0, 0)
s = 187: (0, 0, 0, 6, 10, 7, 5, 13, 26, 8, 0, 0)
s = 188: (0, 0, 0, 8, 10, 5, 5, 13, 18, 9, 0, 0)
s = 189: (0, 0, 0, 9, 15, 7, 5, 18, 13, 13, 0, 0)
s = 190: (0, 0, 0, 5, 10, 4, 5, 12, 19, 7, 0, 0)
s = 191: (0, 0, 0, 7, 9, 6, 11, 15, 20, 11, 0, 0)
s = 192: (0, 0, 0, 9, 8, 8, 8, 13, 18, 9, 0, 0)
s = 193: (0, 0, 0, 5, 8, 4, 7, 16, 25, 12, 0, 0)
s = 194: (0, 0, 0, 5, 11, 5, 9, 15, 12, 8, 0, 0)
s = 195: (0, 0, 0, 10, 9, 6, 9, 13, 19, 11, 0, 0)
s = 196: (0, 0, 0, 6, 7, 6, 6, 16, 19, 11, 0, 0)
s = 197: (0, 0, 0, 4, 16, 6, 5, 11, 14, 8, 0, 0)
s = 198: (0, 0, 0, 6, 7, 4, 6, 18, 11, 11, 0, 0)
s = 199: (0, 0, 0, 11, 10, 7, 7, 14, 14, 8, 0, 0)
s = 200: (0, 0, 0, 5, 11, 11, 11, 22, 17, 10, 0, 0)
------------------------------------------------------------------------
RESOURCE k = 3
s = 1: (0, 21, 18, 0, 0, 0, 0, 0, 0, 0, 13, 0)
s = 2: (0, 24, 29, 0, 0, 0, 0, 0, 0, 0, 11, 0)
s = 3: (0, 42, 16, 0, 0, 0, 0, 0, 0, 0, 8, 0)
s = 4: (0, 39, 30, 0, 0, 0, 0, 0, 0, 0, 6, 0)
s = 5: (0, 29, 26, 0, 0, 0, 0, 0, 0, 0, 9, 0)
s = 6: (0, 45, 30, 0, 0, 0, 0, 0, 0, 0, 9, 0)
s = 7: (0, 26, 31, 0, 0, 0, 0, 0, 0, 0, 9, 0)
s = 8: (0, 34, 18, 0, 0, 0, 0, 0, 0, 0, 11, 0)
s = 9: (0, 24, 17, 0, 0, 0, 0, 0, 0, 0, 9, 0)
s = 10: (0, 23, 18, 0, 0, 0, 0, 0, 0, 0, 12, 0)
s = 11: (0, 20, 24, 0, 0, 0, 0, 0, 0, 0, 8, 0)
s = 12: (0, 48, 13, 0, 0, 0, 0, 0, 0, 0, 7, 0)
s = 13: (0, 26, 15, 0, 0, 0, 0, 0, 0, 0, 7, 0)
s = 14: (0, 46, 24, 0, 0, 0, 0, 0, 0, 0, 9, 0)
s = 15: (0, 36, 29, 0, 0, 0, 0, 0, 0, 0, 6, 0)
s = 16: (0, 23, 29, 0, 0, 0, 0, 0, 0, 0, 6, 0)
s = 17: (0, 28, 20, 0, 0, 0, 0, 0, 0, 0, 9, 0)
s = 18: (0, 57, 31, 0, 0, 0, 0, 0, 0, 0, 8, 0)
s = 19: (0, 23, 36, 0, 0, 0, 0, 0, 0, 0, 7, 0)
s = 20: (0, 45, 28, 0, 0, 0, 0, 0, 0, 0, 7, 0)
s = 21: (0, 25, 29, 0, 0, 0, 0, 0, 0, 0, 8, 0)
s = 22: (0, 34, 23, 0, 0, 0, 0, 0, 0, 0, 9, 0)
s = 23: (0, 44, 14, 0, 0, 0, 0, 0, 0, 0, 9, 0)
s = 24: (0, 35, 30, 0, 0, 0, 0, 0, 0, 0, 9, 0)
s = 25: (0, 40, 32, 0, 0, 0, 0, 0, 0, 0, 6, 0)
s = 26: (0, 34, 18, 0, 0, 0, 0, 0, 0, 0, 10, 0)
s = 27: (0, 46, 19, 0, 0, 0, 0, 0, 0, 0, 7, 0)
s = 28: (0, 38, 14, 0, 0, 0, 0, 0, 0, 0, 7, 0)
s = 29: (0, 41, 37, 0, 0, 0, 0, 0, 0, 0, 8, 0)
s = 30: (0, 49, 34, 0, 0, 0, 0, 0, 0, 0, 11, 0)
s = 31: (0, 38, 41, 0, 0, 0, 0, 0, 0, 0, 5, 0)
s = 32: (0, 34, 26, 0, 0, 0, 0, 0, 0, 0, 9, 0)
s = 33: (0, 32, 41, 0, 0, 0, 0, 0, 0, 0, 7, 0)
s = 34: (0, 43, 28, 0, 0, 0, 0, 0, 0, 0, 9, 0)
s = 35: (0, 50, 28, 0, 0, 0, 0, 0, 0, 0, 16, 0)
s = 36: (0, 46, 26, 0, 0, 0, 0, 0, 0, 0, 10, 0)
s = 37: (0, 24, 23, 0, 0, 0, 0, 0, 0, 0, 8, 0)
s = 38: (0, 36, 29, 0, 0, 0, 0, 0, 0, 0, 7, 0)
s = 39: (0, 29, 24, 0, 0, 0, 0, 0, 0, 0, 7, 0)
s = 40: (0, 32, 37, 0, 0, 0, 0, 0, 0, 0, 11, 0)
s = 41: (0, 41, 18, 0, 0, 0, 0, 0, 0, 0, 10, 0)
s = 42: (0, 31, 30, 0, 0, 0, 0, 0, 0, 0, 9, 0)
s = 43: (0, 45, 24, 0, 0, 0, 0, 0, 0, 0, 7, 0)
s = 44: (0, 31, 21, 0, 0, 0, 0, 0, 0, 0, 8, 0)
s = 45: (0, 29, 17, 0, 0, 0, 0, 0, 0, 0, 9, 0)
s = 46: (0, 40, 15, 0, 0, 0, 0, 0, 0, 0, 12, 0)
s = 47: (0, 30, 29, 0, 0, 0, 0, 0, 0, 0, 7, 0)
s = 48: (0, 22, 39, 0, 0, 0, 0, 0, 0, 0, 15, 0)
s = 49: (0, 31, 37, 0, 0, 0, 0, 0, 0, 0, 7, 0)
s = 50: (0, 49, 28, 0, 0, 0, 0, 0, 0, 0, 8, 0)
s = 51: (0, 23, 19, 0, 0, 0, 0, 0, 0, 0, 12, 0)
s = 52: (0, 44, 21, 0, 0, 0, 0, 0, 0, 0, 12, 0)
s = 53: (0, 38, 13, 0, 0, 0, 0, 0, 0, 0, 10, 0)
s = 54: (0, 25, 36, 0, 0, 0, 0, 0, 0, 0, 10, 0)
s = 55: (0, 27, 32, 0, 0, 0, 0, 0, 0, 0, 7, 0)
s = 56: (0, 29, 14, 0, 0, 0, 0, 0, 0, 0, 9, 0)
s = 57: (0, 29, 15, 0, 0, 0, 0, 0, 0, 0, 8, 0)
s = 58: (0, 49, 36, 0, 0, 0, 0, 0, 0, 0, 7, 0)
s = 59: (0, 35, 17, 0, 0, 0, 0, 0, 0, 0, 11, 0)
s = 60: (0, 25, 35, 0, 0, 0, 0, 0, 0, 0, 7, 0)
s = 61: (0, 23, 31, 0, 0, 0, 0, 0, 0, 0, 7, 0)
s = 62: (0, 36, 18, 0, 0, 0, 0, 0, 0, 0, 8, 0)
s = 63: (0, 36, 31, 0, 0, 0, 0, 0, 0, 0, 11, 0)
s = 64: (0, 25, 26, 0, 0, 0, 0, 0, 0, 0, 11, 0)
s = 65: (0, 38, 37, 0, 0, 0, 0, 0, 0, 0, 7, 0)
s = 66: (0, 32, 21, 0, 0, 0, 0, 0, 0, 0, 9, 0)
s = 67: (0, 57, 24, 0, 0, 0, 0, 0, 0, 0, 6, 0)
s = 68: (0, 31, 16, 0, 0, 0, 0, 0, 0, 0, 10, 0)
s = 69: (0, 57, 34, 0, 0, 0, 0, 0, 0, 0, 6, 0)
s = 70: (0, 48, 28, 0, 0, 0, 0, 0, 0, 0, 8, 0)
s = 71: (0, 51, 15, 0, 0, 0, 0, 0, 0, 0, 6, 0)
s = 72: (0, 45, 21, 0, 0, 0, 0, 0, 0, 0, 12, 0)
s = 73: (0, 44, 13, 0, 0, 0, 0, 0, 0, 0, 7, 0)
s = 74: (0, 34, 22, 0, 0, 0, 0, 0, 0, 0, 11, 0)
s = 75: (0, 51, 16, 0, 0, 0, 0, 0, 0, 0, 9, 0)
s = 76: (0, 22, 18, 0, 0, 0, 0, 0, 0, 0, 11, 0)
s = 77: (0, 39, 26, 0, 0, 0, 0, 0, 0, 0, 6, 0)
s = 78: (0, 42, 23, 0, 0, 0, 0, 0, 0, 0, 11, 0)
s = 79: (0, 43, 23, 0, 0, 0, 0, 0, 0, 0, 12, 0)
s = 80: (0, 37, 26, 0, 0, 0, 0, 0, 0, 0, 10, 0)
s = 81: (0, 46, 28, 0, 0, 0, 0, 0, 0, 0, 8, 0)
s = 82: (0, 27, 15, 0, 0, 0, 0, 0, 0, 0, 8, 0)
s = 83: (0, 58, 24, 0, 0, 0, 0, 0, 0, 0, 7, 0)
s = 84: (0, 36, 28, 0, 0, 0, 0, 0, 0, 0, 6, 0)
s = 85: (0, 28, 24, 0, 0, 0, 0, 0, 0, 0, 10, 0)
s = 86: (0, 28, 29, 0, 0, 0, 0, 0, 0, 0, 6, 0)
s = 87: (0, 45, 15, 0, 0, 0, 0, 0, 0, 0, 8, 0)
s = 88: (0, 35, 20, 0, 0, 0, 0, 0, 0, 0, 11, 0)
s = 89: (0, 48, 18, 0, 0, 0, 0, 0, 0, 0, 11, 0)
s = 90: (0, 40, 32, 0, 0, 0, 0, 0, 0, 0, 6, 0)
s = 91: (0, 32, 16, 0, 0, 0, 0, 0, 0, 0, 6, 0)
s = 92: (0, 32, 16, 0, 0, 0, 0, 0, 0, 0, 7, 0)
s = 93: (0, 20, 25, 0, 0, 0, 0, 0, 0, 0, 13, 0)
s = 94: (0, 26, 39, 0, 0, 0, 0, 0, 0, 0, 6, 0)
s = 95: (0, 35, 13, 0, 0, 0, 0, 0, 0, 0, 12, 0)
s = 96: (0, 45, 21, 0, 0, 0, 0, 0, 0, 0, 7, 0)
s = 97: (0, 44, 17, 0, 0, 0, 0, 0, 0, 0, 12, 0)
s = 98: (0, 47, 41, 0, 0, 0, 0, 0, 0, 0, 6, 0)
s = 99: (0, 26, 28, 0, 0, 0, 0, 0, 0, 0, 6, 0)
s = 100: (0, 35, 36, 0, 0, 0, 0, 0, 0, 0, 6, 0)
s = 101: (0, 50, 19, 0, 0, 0, 0, 0, 0, 0, 9, 0)
s = 102: (0, 30, 23, 0, 0, 0, 0, 0, 0, 0, 6, 0)
s = 103: (0, 32, 15, 0, 0, 0, 0, 0, 0, 0, 6, 0)
s = 104: (0, 36, 22, 0, 0, 0, 0, 0, 0, 0, 5, 0)
s = 105: (0, 21, 27, 0, 0, 0, 0, 0, 0, 0, 12, 0)
s = 106: (0, 35, 26, 0, 0, 0, 0, 0, 0, 0, 5, 0)
s = 107: (0, 38, 28, 0, 0, 0, 0, 0, 0, 0, 9, 0)
s = 108: (0, 32, 23, 0, 0, 0, 0, 0, 0, 0, 8, 0)
s = 109: (0, 63, 29, 0, 0, 0, 0, 0, 0, 0, 7, 0)
s = 110: (0, 52, 34, 0, 0, 0, 0, 0, 0, 0, 8, 0)
s = 111: (0, 37, 27, 0, 0, 0, 0, 0, 0, 0, 9, 0)
s = 112: (0, 57, 17, 0, 0, 0, 0, 0, 0, 0, 8, 0)
s = 113: (0, 25, 26, 0, 0, 0, 0, 0, 0, 0, 9, 0)
s = 114: (0, 29, 13, 0, 0, 0, 0, 0, 0, 0, 6, 0)
s = 115: (0, 33, 23, 0, 0, 0, 0, 0, 0, 0, 8, 0)
s = 116: (0, 39, 21, 0, 0, 0, 0, 0, 0, 0, 8, 0)
s = 117: (0, 39, 23, 0, 0, 0, 0, 0, 0, 0, 7, 0)
s = 118: (0, 43, 17, 0, 0, 0, 0, 0, 0, 0, 6, 0)
s = 119: (0, 26, 23, 0, 0, 0, 0, 0, 0, 0, 6, 0)
s = 120: (0, 21, 27, 0, 0, 0, 0, 0, 0, 0, 7, 0)
s = 121: (0, 47, 24, 0, 0, 0, 0, 0, 0, 0, 10, 0)
s = 122: (0, 29, 28, 0, 0, 0, 0, 0, 0, 0, 6, 0)
s = 123: (0, 37, 23, 0, 0, 0, 0, 0, 0, 0, 11, 0)
s = 124: (0, 28, 28, 0, 0, 0, 0, 0, 0, 0, 11, 0)
s = 125: (0, 34, 28, 0, 0, 0, 0, 0, 0, 0, 13, 0)
s = 126: (0, 35, 30, 0, 0, 0, 0, 0, 0, 0, 8, 0)
s = 127: (0, 29, 35, 0, 0, 0, 0, 0, 0, 0, 8, 0)
s = 128: (0, 27, 29, 0, 0, 0, 0, 0, 0, 0, 10, 0)
s = 129: (0, 23, 28, 0, 0, 0, 0, 0, 0, 0, 8, 0)
s = 130: (0, 45, 24, 0, 0, 0, 0, 0, 0, 0, 10, 0)
s = 131: (0, 27, 18, 0, 0, 0, 0, 0, 0, 0, 8, 0)
s = 132: (0, 29, 23, 0, 0, 0, 0, 0, 0, 0, 7, 0)
s = 133: (0, 42, 30, 0, 0, 0, 0, 0, 0, 0, 10, 0)
s = 134: (0, 34, 27, 0, 0, 0, 0, 0, 0, 0, 11, 0)
s = 135: (0, 23, 21, 0, 0, 0, 0, 0, 0, 0, 10, 0)
s = 136: (0, 51, 17, 0, 0, 0, 0, 0, 0, 0, 9, 0)
s = 137: (0, 40, 32, 0, 0, 0, 0, 0, 0, 0, 7, 0)
s = 138: (0, 41, 25, 0, 0, 0, 0, 0, 0, 0, 5, 0)
s = 139: (0, 47, 37, 0, 0, 0, 0, 0, 0, 0, 9, 0)
s = 140: (0, 28, 29, 0, 0, 0, 0, 0, 0, 0, 6, 0)
s = 141: (0, 36, 25, 0, 0, 0, 0, 0, 0, 0, 6, 0)
s = 142: (0, 40, 23, 0, 0, 0, 0, 0, 0, 0, 10, 0)
s = 143: (0, 48, 24, 0, 0, 0, 0, 0, 0, 0, 7, 0)
s = 144: (0, 27, 19, 0, 0, 0, 0, 0, 0, 0, 10, 0)
s = 145: (0, 37, 34, 0, 0, 0, 0, 0, 0, 0, 9, 0)
s = 146: (0, 31, 33, 0, 0, 0, 0, 0, 0, 0, 8, 0)
s = 147: (0, 61, 28, 0, 0, 0, 0, 0, 0, 0, 11, 0)
s = 148: (0, 36, 31, 0, 0, 0, 0, 0, 0, 0, 10, 0)
s = 149: (0, 57, 31, 0, 0, 0, 0, 0, 0, 0, 9, 0)
s = 150: (0, 28, 16, 0, 0, 0, 0, 0, 0, 0, 10, 0)
s = 151: (0, 44, 33, 0, 0, 0, 0, 0, 0, 0, 9, 0)
s = 152: (0, 26, 19, 0, 0, 0, 0, 0, 0, 0, 13, 0)
s = 153: (0, 31, 31, 0, 0, 0, 0, 0, 0, 0, 8, 0)
s = 154: (0, 40, 26, 0, 0, 0, 0, 0, 0, 0, 7, 0)
s = 155: (0, 30, 25, 0, 0, 0, 0, 0, 0, 0, 6, 0)
s = 156: (0, 63, 30, 0, 0, 0, 0, 0, 0, 0, 5, 0)
s = 157: (0, 23, 23, 0, 0, 0, 0, 0, 0, 0, 5, 0)
s = 158: (0, 36, 31, 0, 0, 0, 0, 0, 0, 0, 9, 0)
s = 159: (0, 20, 27, 0, 0, 0, 0, 0, 0, 0, 7, 0)
s = 160: (0, 28, 31, 0, 0, 0, 0, 0, 0, 0, 8, 0)
s = 161: (0, 38, 18, 0, 0, 0, 0, 0, 0, 0, 6, 0)
s = 162: (0, 43, 37, 0, 0, 0, 0, 0, 0, 0, 7, 0)
s = 163: (0, 37, 25, 0, 0, 0, 0, 0, 0, 0, 11, 0)
s = 164: (0, 26, 32, 0, 0, 0, 0, 0, 0, 0, 6, 0)
s = 165: (0, 36, 27, 0, 0, 0, 0, 0, 0, 0, 12, 0)
s = 166: (0, 34, 24, 0, 0, 0, 0, 0, 0, 0, 10, 0)
s = 167: (0, 31, 26, 0, 0, 0, 0, 0, 0, 0, 7, 0)
s = 168: (0, 32, 28, 0, 0, 0, 0, 0, 0, 0, 11, 0)
s = 169: (0, 50, 39, 0, 0, 0, 0, 0, 0, 0, 6, 0)
s = 170: (0, 37, 22, 0, 0, 0, 0, 0, 0, 0, 8, 0)
s = 171: (0, 33, 23, 0, 0, 0, 0, 0, 0, 0, 8, 0)
s = 172: (0, 33, 17, 0, 0, 0, 0, 0, 0, 0, 9, 0)
s = 173: (0, 30, 15, 0, 0, 0, 0, 0, 0, 0, 7, 0)
s = 174: (0, 30, 24, 0, 0, 0, 0, 0, 0, 0, 9, 0)
s = 175: (0, 28, 32, 0, 0, 0, 0, 0, 0, 0, 5, 0)
s = 176: (0, 36, 29, 0, 0, 0, 0, 0, 0, 0, 10, 0)
s = 177: (0, 25, 44, 0, 0, 0, 0, 0, 0, 0, 10, 0)
s = 178: (0, 24, 16, 0, 0, 0, 0, 0, 0, 0, 9, 0)
s = 179: (0, 29, 32, 0, 0, 0, 0, 0, 0, 0, 10, 0)
s = 180: (0, 28, 20, 0, 0, 0, 0, 0, 0, 0, 14, 0)
s = 181: (0, 38, 38, 0, 0, 0, 0, 0, 0, 0, 6, 0)
s = 182: (0, 24, 30, 0, 0, 0, 0, 0, 0, 0, 5, 0)
s = 183: (0, 36, 15, 0, 0, 0, 0, 0, 0, 0, 8, 0)
s = 184: (0, 32, 31, 0, 0, 0, 0, 0, 0, 0, 5, 0)
s = 185: (0, 71, 34, 0, 0, 0, 0, 0, 0, 0, 7, 0)
s = 186: (0, 43, 21, 0, 0, 0, 0, 0, 0, 0, 9, 0)
s = 187: (0, 39, 34, 0, 0, 0, 0, 0, 0, 0, 5, 0)
s = 188: (0, 45, 30, 0, 0, 0, 0, 0, 0, 0, 8, 0)
s = 189: (0, 30, 27, 0, 0, 0, 0, 0, 0, 0, 12, 0)
s = 190: (0, 59, 33, 0, 0, 0, 0, 0, 0, 0, 8, 0)
s = 191: (0, 39, 31, 0, 0, 0, 0, 0, 0, 0, 8, 0)
s = 192: (0, 28, 40, 0, 0, 0, 0, 0, 0, 0, 5, 0)
s = 193: (0, 37, 33, 0, 0, 0, 0, 0, 0, 0, 14, 0)
s = 194: (0, 32, 25, 0, 0, 0, 0, 0, 0, 0, 10, 0)
s = 195: (0, 40, 22, 0, 0, 0, 0, 0, 0, 0, 9, 0)
s = 196: (0, 38, 45, 0, 0, 0, 0, 0, 0, 0, 12, 0)
s = 197: (0, 23, 35, 0, 0, 0, 0, 0, 0, 0, 11, 0)
s = 198: (0, 43, 29, 0, 0, 0, 0, 0, 0, 0, 8, 0)
s = 199: (0, 36, 25, 0, 0, 0, 0, 0, 0, 0, 8, 0)
s = 200: (0, 41, 32, 0, 0, 0, 0, 0, 0, 0, 14, 0)
************************************************************************
ES/LS-VALUES:
jobnr.   ES(i)    LS(i)
------------------------------------------------------------------------
  0        0        0
  1        0       69
  2        0       63
  3        0       71
  4        2       73
  5        7       71
  6       13       77
  7        7       75
  8        2       79
  9       13       81
 10       17       81
 11       21       85
************************************************************************
BIG-M-VALUES:
M1 = 57, M2 = 279
************************************************************************
